SAT
1 -2 -3 -97 -214 4 -5 -6 -172 -193 7 -8 -9 -19 -142 10 -11 -12 -163 13 -14 -15 -82 -199 16 -17 -18 -220 20 -21 -173 174 22 -23 -24 -70 -202 25 -26 -27 -73 -151 28 -29 -30 -133 -229 31 -32 -33 -46 -67 34 -35 -36 -37 38 -39 -158 40 -41 -42 -181 43 -44 -45 -169 -196 47 -48 -233 49 -50 -51 -112 -115 52 -53 -54 -58 55 -56 -57 -166 59 -60 -98 99 61 -62 -63 -79 -238 64 -65 -66 -94 -223 68 -69 -92 71 -72 -134 135 74 -75 76 -77 -78 -235 80 -81 -86 83 -84 -89 85 -87 -145 88 -90 91 -93 95 -96 -194 195 100 -101 -102 -136 -208 103 -104 -105 -211 106 -107 -108 109 -110 -111 -184 113 -114 116 -117 118 -119 -120 -148 -154 121 -122 -123 -175 124 -125 -126 -178 127 -128 -129 -130 131 -132 -218 137 -138 -239 240 139 -140 -141 -187 143 -144 146 -147 149 -150 -212 213 152 -153 155 -156 -161 157 -159 160 -162 -190 164 -165 167 -168 170 -171 176 -177 179 -180 -191 192 182 -183 -221 222 185 -186 -206 188 -189 197 -198 200 -201 203 -204 205 -207 -217 219 209 -210 215 -216 224 -225 226 -227 -228 230 -231 232 -234 236 -237 0